# freq rb3lyp scrf=check guess=tcheck chkbas genchk

optimization

0 1
 C                  0.95775000    2.24491200   -0.00491700
 C                  1.67410900    1.04739100    0.00840400
 C                  0.97903700   -0.16403700    0.01503600
 C                 -0.41036600   -0.13968600    0.00782400
 C                 -1.13302500    1.04710400   -0.00571600
 C                 -0.43734100    2.25811100   -0.01224200
 I                  2.02817300    4.11857200   -0.01515500
 H                  2.75833200    1.04568500    0.01370700
 H                  1.50251800   -1.11403200    0.02563800
 H                 -2.21747000    1.02095600   -0.01108100
 H                 -0.98564400    3.19300700   -0.02290500
 F                 -1.08256500   -1.31296100    0.01435300

