# freq rb3lyp/6-31g(d,p) scrf=check guess=tcheck genchk

optimization

0 1
 C                  1.03863900    2.37567300    0.01773200
 C                  1.69248900    1.14704700   -0.17812700
 C                  0.99620600   -0.06106600   -0.13100100
 C                 -0.38311300   -0.08781600    0.11733200
 C                 -1.04326600    1.13590200    0.31763800
 C                 -0.34694400    2.34049700    0.26660200
 B                  1.81593700    3.72271800   -0.04369400
 H                  2.76210100    1.13664800   -0.37086400
 H                  1.52748100   -0.99690300   -0.28749000
 C                 -1.14596900   -1.38847300    0.16608000
 H                 -2.11346300    1.13817000    0.51271200
 H                 -0.88425900    3.27270400    0.42062200
 O                  3.15370000    3.80852100   -0.34403800
 O                  1.23260000    4.94389500    0.19314400
 C                  2.20368300    5.97266100   -0.17825400
 C                  3.57131000    5.18781700   -0.09473700
 C                  2.06678700    7.14028600    0.79370900
 H                  2.81755000    7.90894900    0.58413200
 H                  1.07919900    7.59865700    0.68194800
 H                  2.17608100    6.82174600    1.83225800
 C                  1.84331600    6.42238100   -1.59832600
 H                  2.48826600    7.23804900   -1.93788800
 H                  1.92132600    5.59811500   -2.31343800
 H                  0.80954500    6.78037400   -1.60754100
 C                  4.20223100    5.20820300    1.30181600
 H                  4.60664000    6.19479100    1.54595600
 H                  3.47976700    4.92891300    2.07451000
 H                  5.02413000    4.48674100    1.33205000
 C                  4.60607900    5.57641200   -1.14607900
 H                  5.50851300    4.97092300   -1.01695100
 H                  4.23420600    5.41805000   -2.16049900
 H                  4.89049800    6.62813000   -1.03960300
 H                 -1.66402400   -1.51086400    1.12440200
 H                 -1.91357600   -1.42602400   -0.61622400
 H                 -0.48346600   -2.24725600    0.02781300

