# freq rb3lyp scrf=check guess=tcheck chkbas genchk

aj

-1 1
 Pd                -1.61583600   -0.72789200   -0.37529800
 O                 -0.87590000    1.11912900   -0.64309200
 C                 -1.78621600    2.07063700   -0.65884100
 C                 -3.25904700    1.62855100   -0.77791700
 N                 -3.31636600    0.17471700   -0.93172900
 C                 -4.20472300   -0.46299100   -1.71834900
 O                 -4.12000200   -1.68213500   -1.97904400
 O                  0.19817400   -1.53175400    0.15488500
 C                  0.15776300   -2.57603400    0.93782200
 C                 -1.21338000   -3.16605000    1.21762800
 C                 -2.44220600   -2.84010500    0.37007300
 H                 -2.45909800   -2.39905700   -0.66123300
 O                  1.14793400   -3.08921900    1.45434400
 H                 -3.39512400   -2.73613500    0.87531800
 H                 -1.41845000   -3.27895800    2.27873600
 C                 -1.78845200   -4.21874100    0.32834600
 H                 -1.24789800   -4.47121300   -0.57990000
 H                 -2.33380800   -5.03975700    0.78402900
 H                 -3.60377300    2.11976500   -1.69779700
 C                 -4.11757000    2.22934700    0.36394300
 O                 -1.49420000    3.26062500   -0.60875800
 C                 -5.36391900    0.33892200   -2.30688100
 H                 -5.17194800    2.14135800    0.07699800
 H                 -5.00279500    1.05457600   -3.05480300
 H                 -6.04876800   -0.35673700   -2.79422900
 H                 -5.90692700    0.90475000   -1.54511100
 H                 -3.88430000    3.30119800    0.36447600
 C                 -3.97321200    1.69463800    1.80752100
 H                 -4.59352800    2.37315800    2.41254500
 C                 -4.54496900    0.28236200    2.00737400
 H                 -5.56127300    0.19894800    1.60412600
 H                 -3.92810700   -0.47068400    1.51196100
 H                 -4.58834900    0.03505900    3.07533000
 C                 -2.54354300    1.78395400    2.36105100
 H                 -1.88118200    1.06012000    1.87460400
 H                 -2.11400300    2.78027100    2.21348600
 H                 -2.53373800    1.56511200    3.43545900

