# freq rb3lyp scrf=check guess=tcheck chkbas genchk

aj

0 1
 Pd                -1.85208600   -0.58387500    0.03988000
 N                 -0.94253300    1.27317200   -0.04673300
 C                 -2.00847900    2.34915500   -0.16018100
 C                 -3.41024100    1.78998100   -0.49733900
 N                 -3.25617500    0.41570600   -0.97127700
 C                 -3.94318400   -0.12246700   -1.98921300
 O                 -3.74070500   -1.29919300   -2.37839700
 O                 -0.33757800   -1.49029300    1.09448900
 C                 -0.68536600   -2.52544800    1.81219300
 C                 -2.02838200   -3.15201000    1.52786700
 C                 -2.87603400   -2.79090700    0.31346500
 H                 -2.52468200   -2.25198700   -0.59716500
 O                  0.03338200   -3.00197800    2.69534400
 H                 -3.94833000   -2.72757900    0.45208900
 H                 -2.59892200   -3.34920400    2.42982600
 C                 -2.18871200   -4.14446200    0.41791400
 H                 -1.34306700   -4.31299900   -0.24267300
 H                 -2.81826700   -5.01068600    0.59670700
 H                 -3.81957300    2.41296000   -1.29836800
 C                 -4.41187700    1.91087100    0.68851400
 H                 -5.40343000    1.65579100    0.29978800
 C                 -4.99322300    0.72272100   -2.70068000
 H                 -4.52474300    1.55113900   -3.24382100
 H                 -5.51671900    0.08837300   -3.41768300
 H                 -5.71899000    1.14888100   -2.00142600
 H                 -2.03226500    2.89547300    0.78167600
 H                 -1.69327400    3.05405300   -0.93264100
 C                  0.00170200    1.56993000    1.08160400
 H                 -0.56262200    1.78700400    1.98834200
 H                  0.59767200    0.67174600    1.24798300
 H                 -4.44496600    2.96714100    0.98169400
 C                 -4.10322800    1.04470200    1.88696100
 C                 -3.24093900    1.48033500    2.90535900
 C                 -4.65627500   -0.24138200    1.99194000
 C                 -2.91055400    0.64387500    3.97444000
 H                 -2.83042700    2.48572300    2.86789200
 C                 -4.34186000   -1.07462400    3.06713600
 H                 -5.33446300   -0.59141500    1.21818300
 C                 -3.45614400   -0.64008300    4.05672700
 H                 -2.23654800    1.00019400    4.74901400
 H                 -4.78389800   -2.06518200    3.12872000
 H                 -3.20517000   -1.28942100    4.89088200
 C                  0.87391900    2.72109700    0.55737500
 H                  0.40729600    3.68602000    0.77577300
 H                  1.85632600    2.71121900    1.03573000
 C                 -0.01831900    1.30450200   -1.23943500
 H                  0.52177700    0.35550400   -1.25241300
 H                 -0.60553300    1.38498100   -2.15479800
 C                  0.94754800    2.48111400   -0.97654300
 H                  0.64507900    3.37441400   -1.52888200
 H                  1.95518200    2.21623700   -1.30561500

